12
3 4
3 7
3 10
3 1
3 9
3 5
3 11
3 8
3 2
4 9
4 6
4 5
4 8
4 0
4 7
4 10
4 1
9 8
9 5
9 10
9 7
9 0
9 2
9 6
7 5
7 2
7 6
7 1
7 11
7 8
6 1
6 11
6 5
6 10
6 0
6 2
10 5
10 11
10 0
10 2
10 1
5 0
5 11
5 8
0 2
0 8
0 11
0 1
2 11
2 8
2 1
8 11
8 1
1 11
